nApps = 210
nRes = 9
nActs = 414
nNetworks = 6

assignmentToResources = [3,1,2,2,1,3,1,1,2,3,1,2,3,2,2,2,1,1,2,2,1,1,1,1,2,1,2,2,1,1,1,1,1,1,2,1,2,3,1,1,2,3,3,2,1,1,3,2,1,1,2,3,3,1,3,3,1,1,3,2,2,3,2,1,3,1,2,3,2,1,1,3,2,2,1,1,3,2,1,1,1,2,2,1,1,1,2,1,2,2,3,1,1,3,3,1,1,2,1,1,6,6,4,5,5,5,4,4,6,6,4,4,4,4,4,5,6,6,6,6,6,5,6,5,5,5,4,4,5,5,5,5,4,4,4,4,4,4,4,5,4,4,5,5,5,5,4,4,4,4,4,4,4,4,4,4,4,5,6,6,6,4,4,4,5,5,5,5,6,6,6,6,5,5,4,4,4,4,6,5,4,4,4,5,5,5,4,4,6,6,4,4,4,4,4,4,5,5,5,4,4,5,5,5,5,5,6,6,6,5,4,4,4,4,4,4,5,5,5,5,4,5,5,4,5,5,4,4,4,4,5,5,5,5,6,4,4,4,8,5,9,4,8,4,8,6,7,5,7,4,9,5,9,6,8,6,8,4,8,6,8,4,9,5,9,4,8,5,7,5,9,6,7,6,7,4,9,7,8,8,7,9,7,8,8,7,7,9,8,8,8,9,7,7,8,7,7,7,7,8,7,7,9,8,8,9,7,9,9,9,9,9,8,9,8,9,7,8,9,9,7,7,7,8,9,9,9,9,9,9,9,8,8,8,9,7,7,7,8,9,8,7,9,7,9,8,8,7,8,9,7,9,8,9,9,7,9,9,8,8,9,7,7,8,8,7,7,9,9,9,8,8,8,7,7,7,8,8,9,7,7,7,9,7,8,7,7,8,8,9,9,8,8,9,7,7,9,8,7,7,9,9,9,9,9,8,9,7,7,7,9,8,8,9];

processingTimes = [128,104,48,128,120,112,168,80,112,128,104,120,136,112,112,144,128,120,104,64,56,120,128,120,56,104,64,128,152,112,104,128,136,128,152,128,104,112,112,48,136,136,88,136,112,104,120,136,160,120,64,144,112,96,64,112,104,112,96,80,160,128,136,80,120,160,128,48,136,48,88,128,112,48,144,112,136,136,120,104,120,136,104,64,64,104,96,56,56,104,64,144,128,112,152,64,120,72,112,72,4,3,4,500,13,5,3,3,200,4,3,500,4,4,500,4,3,3,8,8,8,4,4,3,4,8,3,4,3,3,500,3,3,4,3,4,4,3,500,3,3,3,500,500,3,500,500,500,5,3,4,500,3,13,13,500,500,4,3,3,13,4,3,3,3,3,500,5,4,4,4,4,3,3,3,4,3,3,8,13,4,500,3,7,500,500,4,4,4,500,8,5,5,5,5,5,4,4,3,500,8,3,4,8,500,4,4,13,13,500,23,500,5,5,5,3,4,8,8,500,4,4,4,500,5,500,4,13,13,4,500,4,4,4,5,4,4,500,500,500,500,4,4,4,4,3,3,4,4,4,4,4,4,4,4,8,8,7,7,5,5,3,3,4,4,500,500,500,500,10,10,4,4,4,4,3,3,4,3,4,500,13,5,3,3,200,4,3,500,4,4,500,4,3,3,8,8,8,4,4,3,4,8,3,4,3,3,500,3,3,4,3,4,4,3,500,3,3,3,500,500,3,500,500,500,5,3,4,500,3,13,13,500,500,4,3,3,13,4,3,3,3,3,500,5,4,4,4,4,3,3,3,4,3,3,8,13,4,500,3,7,500,500,4,4,4,500,8,5,5,5,5,5,4,4,3,500,8,3,4,8,500,4,4,13,13,500,23,500,5,5,5,3,4,8,8,500,4,4,4,500,5,500,4,13,13,4,500,4,4,4,5,4,4];

periods = [50000,10000,20000,20000,20000,2000,100000,10000,10000,20000,10000,20000,1000,100000,20000,20000,100000,50000,10000,10000,100000,10000,10000,10000,10000,10000,10000,10000,100000,20000,100000,10000,10000,10000,10000,50000,20000,10000,10000,1000,20000,10000,20000,1000,20000,20000,20000,20000,20000,10000,5000,100000,20000,10000,20000,10000,10000,10000,10000,100000,10000,100000,20000,10000,10000,20000,100000,10000,20000,100000,20000,5000,10000,10000,100000,50000,10000,100000,20000,10000,10000,100000,10000,100000,20000,10000,100000,10000,20000,10000,10000,100000,100000,20000,2000,20000,20000,10000,100000,100000,50000,50000,10000,20000,20000,20000,20000,20000,2000,2000,100000,100000,10000,10000,10000,10000,20000,20000,20000,20000,20000,20000,1000,100000,20000,20000,100000,100000,10000,10000,10000,10000,100000,100000,100000,10000,10000,10000,10000,10000,10000,10000,10000,10000,10000,10000,20000,20000,100000,100000,100000,10000,10000,10000,10000,10000,10000,10000,10000,10000,10000,10000,10000,1000,20000,20000,20000,20000,10000,10000,10000,10000,1000,1000,20000,20000,20000,20000,20000,20000,20000,20000,10000,5000,5000,5000,10000,10000,20000,20000,10000,10000,10000,10000,10000,10000,100000,100000,10000,10000,20000,100000,100000,100000,100000,100000,10000,10000,10000,20000,20000,20000,20000,20000,20000,20000,10000,10000,10000,10000,100000,100000,100000,20000,10000,10000,20000,10000,10000,10000,100000,100000,10000,10000,20000,100000,100000,10000,10000,10000,10000,20000,20000,20000,20000,20000,20000,20000,20000,20000,20000,20000,20000,20000,20000,20000,20000,20000,20000,20000,20000,20000,20000,10000,10000,10000,10000,10000,10000,1000,1000,1000,1000,20000,20000,20000,20000,50000,50000,10000,20000,20000,20000,20000,20000,2000,2000,100000,100000,10000,10000,10000,10000,20000,20000,20000,20000,20000,20000,1000,100000,20000,20000,100000,100000,10000,10000,10000,10000,100000,100000,100000,10000,10000,10000,10000,10000,10000,10000,10000,10000,10000,10000,20000,20000,100000,100000,100000,10000,10000,10000,10000,10000,10000,10000,10000,10000,10000,10000,10000,1000,20000,20000,20000,20000,10000,10000,10000,10000,1000,1000,20000,20000,20000,20000,20000,20000,20000,20000,10000,5000,5000,5000,10000,10000,20000,20000,10000,10000,10000,10000,10000,10000,100000,100000,10000,10000,20000,100000,100000,100000,100000,100000,10000,10000,10000,20000,20000,20000,20000,20000,20000,20000,10000,10000,10000,10000,100000,100000,100000,20000,10000,10000,20000,10000,10000,10000,100000,100000,10000,10000,20000,100000,100000];

assignmentToClusters = [1,2,3,4,5,6,7,8,9,3,10,3,11,12,3,13,14,15,16,2,17,18,19,18,20,21,22,23,24,25,26,27,18,18,28,29,3,30,31,11,32,33,3,11,5,34,25,35,3,36,37,38,3,18,39,2,18,40,41,42,43,44,5,45,46,47,48,49,50,51,52,53,10,54,55,56,9,57,25,10,58,59,60,61,3,62,63,18,64,65,66,67,68,5,69,3,70,71,72,73,74,75,76,77,78,79,80,81,82,83,84,85,86,87,88,89,90,91,92,93,94,95,96,97,98,99,100,101,102,103,104,105,106,107,108,109,110,111,112,113,114,115,116,117,118,119,120,121,122,123,124,125,126,127,128,129,130,131,132,133,134,135,136,137,138,139,140,141,142,143,144,145,146,147,148,149,150,151,152,153,154,155,156,157,158,159,160,161,162,163,164,165,166,167,168,169,170,171,172,173,174,175,176,177,178,179,180,181,182,183,184,185,186,187,188,189,190,191,192,193,194,195,196,197,198,199,200,201,202,203,204,205,206,207,208,209,210,2,2,2,2,3,3,3,3,3,3,3,3,3,3,3,3,3,3,3,3,5,5,5,5,5,5,9,9,10,10,10,10,11,11,11,11,25,25,25,25,74,75,76,77,78,79,80,81,82,83,84,85,86,87,88,89,90,91,92,93,94,95,96,97,98,99,100,101,102,103,104,105,106,107,108,109,110,111,112,113,114,115,116,117,118,119,120,121,122,123,124,125,126,127,128,129,130,131,132,133,134,135,136,137,138,139,140,141,142,143,144,145,146,147,148,149,150,151,152,153,154,155,156,157,158,159,160,161,162,163,164,165,166,167,168,169,170,171,172,173,174,175,176,177,178,179,180,181,182,183,184,185,186,187,188,189,190,191,192,193,194,195,196,197,198,199,200,201,202,203,204,205,206,207,208,209,210];

precedenceAdjList = [[],[],[],[],[],[],[],[],[],[],[],[256],[270],[],[254],[],[],[],[],[238],[],[],[],[56,87],[],[],[],[],[],[274],[],[],[23],[87],[],[],[2,242,244],[],[],[272],[],[],[250,252],[],[],[],[276],[],[],[],[],[],[],[32],[],[240],[],[],[],[],[],[],[258,260],[],[],[],[],[],[],[],[],[],[266],[],[],[],[264],[],[],[268],[],[],[],[],[],[],[],[21],[],[],[],[],[],[262],[],[246,248],[],[],[],[],[],[],[],[],[],[],[],[],[],[],[],[],[],[],[],[],[],[],[],[],[],[],[],[],[],[],[],[],[],[],[],[],[],[],[],[],[],[],[],[],[],[],[],[],[],[],[],[],[],[],[],[],[],[],[],[],[],[],[],[],[],[],[],[],[],[],[],[],[],[],[],[],[],[],[],[],[],[],[],[],[],[],[],[],[],[],[],[],[],[],[],[],[],[],[],[],[],[],[],[],[],[],[],[],[],[],[],[],[],[],[],[],[],[],[],[],[],[],[],[],[],[],[],[],[],[],[],[],[],[],[],[],[],[],[],[],[],[1],[237],[19],[239],[95],[241],[84],[243],[42],[245],[11],[247],[48],[249],[14],[251],[52],[253],[9],[255],[4],[257],[93],[259],[44],[261],[8],[263],[10],[265],[72],[267],[43],[269],[12],[271],[46],[273],[78],[275],[100],[101],[102],[103],[104],[105],[106],[107],[108],[109],[110],[111],[112],[113],[114],[115],[116],[117],[118],[119],[120],[121],[122],[123],[124],[125],[126],[127],[128],[129],[130],[131],[132],[133],[134],[135],[136],[137],[138],[139],[140],[141],[142],[143],[144],[145],[146],[147],[148],[149],[150],[151],[152],[153],[154],[155],[156],[157],[158],[159],[160],[161],[162],[163],[164],[165],[166],[167],[168],[169],[170],[171],[172],[173],[174],[175],[176],[177],[178],[179],[180],[181],[182],[183],[184],[185],[186],[187],[188],[189],[190],[191],[192],[193],[194],[195],[196],[197],[198],[199],[200],[201],[202],[203],[204],[205],[206],[207],[208],[209],[210],[211],[212],[213],[214],[215],[216],[217],[218],[219],[220],[221],[222],[223],[224],[225],[226],[227],[228],[229],[230],[231],[232],[233],[234],[235],[236]];